c This is QMaxSAT 2017 based on 14.07
c This is Glucose 3.0
c This is MiniSat 2.2.0
c WARNING: for repeatability, setting FPU to use double precision
c card = mrwto, comp = 0, pmodel = 0, narr = 6, mct = 42, verb = 0
cr firstCPXsol 0 0 0
c top = 127531
c |  Number of variables:    77824                                            |
c |  Number of clauses:      55099994                                         |
c |  Weight of hard clauses: 127531                                           |
c |  Number of soft clauses: 10332                                            |
c |  Number of unit soft clauses: 10332                                       |
c |  Maximum Cardinality (by unit): 765180       (765180      )               |
c last restart ## conflicts  :  0 1933 
o 429 | cpuTime 4.702 s
c Sum of weights = 127530
c A number of soft clauses remained = 1722
c MRWTO encoding for Pseudo-Boolean Constraints
c sizeMax=429
c No.0 Divisor=8	generated by pow1
c No.1 Divisor=8	generated by pow1
c No.2 Divisor=8	generated by pow1
c p0= 8	p1= 8	p2= 8	
c number of digits = 4
c linkingVar[0].size = 8, linkingVar[1].size = 8, linkingVar[2].size = 7, linkingVar[3].size = 1, 
c Pseudo-Boolean Constraints: 29581 variables and 198513 clauses
c Sum of weights = 127530
c A number of soft clauses remained = 1722
c MRWTO encoding for Pseudo-Boolean Constraints
c sizeMax=429
c No.0 Divisor=8	generated by pow1
c No.1 Divisor=8	generated by pow1
c No.2 Divisor=8	generated by pow1
c p0= 8	p1= 8	p2= 8	
c number of digits = 4
c linkingVar[0].size = 8, linkingVar[1].size = 8, linkingVar[2].size = 7, linkingVar[3].size = 1, 
c Pseudo-Boolean Constraints: 29581 variables and 198513 clauses
c Sum of weights = 127530
c A number of soft clauses remained = 1722
c MRWTO encoding for Pseudo-Boolean Constraints
c sizeMax=429
c No.0 Divisor=8	generated by pow1
c No.1 Divisor=8	generated by pow1
c No.2 Divisor=8	generated by pow1
c p0= 8	p1= 8	p2= 8	
c number of digits = 4
c linkingVar[0].size = 8, linkingVar[1].size = 8, linkingVar[2].size = 7, linkingVar[3].size = 1, 
c Pseudo-Boolean Constraints: 29581 variables and 198513 clauses
c Sum of weights = 127530
c A number of soft clauses remained = 1722
c MRWTO encoding for Pseudo-Boolean Constraints
c sizeMax=429
c No.0 Divisor=8	generated by pow1
c No.1 Divisor=8	generated by pow1
c No.2 Divisor=8	generated by pow1
c p0= 8	p1= 8	p2= 8	
c number of digits = 4
c linkingVar[0].size = 8, linkingVar[1].size = 8, linkingVar[2].size = 7, linkingVar[3].size = 1, 
c Pseudo-Boolean Constraints: 29581 variables and 198513 clauses
c Sum of weights = 127530
c A number of soft clauses remained = 1722
c MRWTO encoding for Pseudo-Boolean Constraints
c sizeMax=429
c No.0 Divisor=8	generated by pow1
c No.1 Divisor=8	generated by pow1
c No.2 Divisor=8	generated by pow1
c p0= 8	p1= 8	p2= 8	
c number of digits = 4
c linkingVar[0].size = 8, linkingVar[1].size = 8, linkingVar[2].size = 7, linkingVar[3].size = 1, 
c Pseudo-Boolean Constraints: 29581 variables and 198513 clauses
c Sum of weights = 127530
c A number of soft clauses remained = 1722
c MRWTO encoding for Pseudo-Boolean Constraints
c sizeMax=429
c No.0 Divisor=8	generated by pow1
c No.1 Divisor=8	generated by pow1
c No.2 Divisor=8	generated by pow1
c p0= 8	p1= 8	p2= 8	
c number of digits = 4
c linkingVar[0].size = 8, linkingVar[1].size = 8, linkingVar[2].size = 7, linkingVar[3].size = 1, 
c Pseudo-Boolean Constraints: 29581 variables and 198513 clauses
s UNKNOWN
c Search is stopped by a limit (maybe time-limit)
cr positiVarArr: [ | 2@1(1->2) | 45@1(2->3) | 88@1(3->4) | 131@1(4->5) | 174@1(5->6) | 217@1(6->7) | 260@1(7->8) | 295@1(8->1) | 1773@2(1->9) | 2110@2(9->10) | 2153@2(10->11) | 2196@2(11->12) | 2239@2(12->13) | 2282@2(13->14) | 2325@2(14->15) | 2353@2(15->1) | 3544@3(1->16) | 4175@3(16->17) | 4218@3(17->18) | 4261@3(18->19) | 4304@3(19->20) | 4347@3(20->21) | 4390@3(21->22) | 4411@3(22->1) | 5315@4(1->23) | 6240@4(23->24) | 6283@4(24->25) | 6326@4(25->26) | 6369@4(26->27) | 6412@4(27->28) | 6455@4(28->29) | 6469@4(29->1) | 7086@5(1->30) | 8305@5(30->31) | 8348@5(31->32) | 8391@5(32->33) | 8434@5(33->34) | 8477@5(34->35) | 8520@5(35->36) | 8527@5(36->1) | 8857@6(1->37) | 10370@6(37->38) | 10413@6(38->39) | 10456@6(39->40) | 10499@6(40->41) | 10542@6(41->42) | 10543@6(42->1) | ]
cr the 1-th chain: [ 1->2->3->4->5->6->7->8->1 ] (#non-depot=7) {#cumul.=8}
cr the 2-th chain: [ 1->9->10->11->12->13->14->15->1 ] (#non-depot=7) {#cumul.=15}
cr the 3-th chain: [ 1->16->17->18->19->20->21->22->1 ] (#non-depot=7) {#cumul.=22}
cr the 4-th chain: [ 1->23->24->25->26->27->28->29->1 ] (#non-depot=7) {#cumul.=29}
cr the 5-th chain: [ 1->30->31->32->33->34->35->36->1 ] (#non-depot=7) {#cumul.=36}
cr the 6-th chain: [ 1->37->38->39->40->41->42->1 ] (#non-depot=6) {#cumul.=42}
c Latest Answer = 0 by 1 loops
c restarts              : 18508
c conflicts             : 5015080        (1401 /sec)
c decisions             : 117987930      (0.00 % random) (32960 /sec)
c propagations          : 21569969238    (6025537 /sec)
c conflict literals     : 4925766933     (21.93 % deleted)
c Memory used           : 5397.00 MB
c CPU time              : 3579.76 s
